5
693 907 572  646
410 806 608  363
515 477 666  387
645 482 509  196
699 920 619  421
10
162 763 674  196 242
604 761 185  88 120
189 495 192  91 269
182 200 75  231 135
529 775 325  229 11
170 574 381  160 293
577 200 272  10 140
147 372 389  80 157
430 376 396  202 223
337 591 705  114 149
